NAME : pairopt
TYPE : ACVRP
DIMENSION : 6
EDGE_WEIGHT_TYPE : EXPLICIT
EDGE_WEIGHT_FORMAT : FULL_MATRIX
CAPACITY : 11250
VEHICLES : 2
EDGE_WEIGHT_SECTION
100000 -100000 -100000 100000 100000 100000 
100000 100000 1000000 50958 50793 809 
100000 1000000 100000 214 162 263 
0 50958 214 100000 266 413 
0 50793 162 266 100000 365 
0 809 263 413 365 100000 
DEMAND_SECTION
1 0
2 0
3 0
4 5000
5 5000
6 5000
DEPOT_SECTION
1
EOF